p edge 64 512
e 1 23
e 1 64
e 1 28
e 1 9
e 1 53
e 1 54
e 1 35
e 1 31
e 1 36
e 1 50
e 1 40
e 1 22
e 1 16
e 1 51
e 1 7
e 1 47
e 1 30
e 1 8
e 1 33
e 2 25
e 2 7
e 2 33
e 2 18
e 2 9
e 2 53
e 2 34
e 2 62
e 2 45
e 2 46
e 2 39
e 2 3
e 2 38
e 2 22
e 2 10
e 2 58
e 2 4
e 2 49
e 2 40
e 2 57
e 2 6
e 2 14
e 3 14
e 3 21
e 3 17
e 3 55
e 3 25
e 3 35
e 3 31
e 3 40
e 3 59
e 3 64
e 4 42
e 4 52
e 4 11
e 4 33
e 4 48
e 4 43
e 4 58
e 4 8
e 4 26
e 4 35
e 4 18
e 4 63
e 4 64
e 5 13
e 5 37
e 5 62
e 5 21
e 5 64
e 5 26
e 5 16
e 5 17
e 5 36
e 5 11
e 5 51
e 5 14
e 6 40
e 6 64
e 6 53
e 6 10
e 6 38
e 6 52
e 6 59
e 6 58
e 6 12
e 6 16
e 6 7
e 6 29
e 6 26
e 7 30
e 7 46
e 7 33
e 7 16
e 7 45
e 7 12
e 7 36
e 7 34
e 7 47
e 7 10
e 7 18
e 7 57
e 7 55
e 7 42
e 7 25
e 7 60
e 7 41
e 8 17
e 8 9
e 8 41
e 8 59
e 8 39
e 8 15
e 8 14
e 8 25
e 8 35
e 8 61
e 8 34
e 9 56
e 9 20
e 9 27
e 9 64
e 9 38
e 9 21
e 9 53
e 9 49
e 9 57
e 9 37
e 9 63
e 9 36
e 10 50
e 10 32
e 10 53
e 10 38
e 10 35
e 10 45
e 10 47
e 10 27
e 10 37
e 10 33
e 10 62
e 10 51
e 10 30
e 10 18
e 10 23
e 10 61
e 10 31
e 10 52
e 11 61
e 11 28
e 11 16
e 11 42
e 11 36
e 11 41
e 11 32
e 11 26
e 11 20
e 11 56
e 11 59
e 11 52
e 11 23
e 11 29
e 11 19
e 12 24
e 12 63
e 12 25
e 12 15
e 12 38
e 12 44
e 12 52
e 12 49
e 12 22
e 13 62
e 13 23
e 13 51
e 13 28
e 13 42
e 13 50
e 13 32
e 13 38
e 13 44
e 13 31
e 13 17
e 13 14
e 13 37
e 13 54
e 13 35
e 13 33
e 14 32
e 14 46
e 14 64
e 14 22
e 14 21
e 14 27
e 14 54
e 14 63
e 14 20
e 14 37
e 15 20
e 15 29
e 15 17
e 15 50
e 15 16
e 15 27
e 15 60
e 15 47
e 15 36
e 15 38
e 15 45
e 15 64
e 15 43
e 16 36
e 16 33
e 16 64
e 16 17
e 16 61
e 16 41
e 16 48
e 16 63
e 16 26
e 16 54
e 16 50
e 16 58
e 17 40
e 17 63
e 17 19
e 17 22
e 17 44
e 17 37
e 17 26
e 17 60
e 18 35
e 18 38
e 18 46
e 18 59
e 18 37
e 18 43
e 18 33
e 18 42
e 18 55
e 18 39
e 19 48
e 19 36
e 19 26
e 19 43
e 19 28
e 19 59
e 19 46
e 19 22
e 20 51
e 20 34
e 20 39
e 20 28
e 20 46
e 20 57
e 20 37
e 20 48
e 20 27
e 20 30
e 20 64
e 20 22
e 20 56
e 20 42
e 20 25
e 20 47
e 20 55
e 21 39
e 21 52
e 21 23
e 21 33
e 21 62
e 21 44
e 21 54
e 21 40
e 22 41
e 22 36
e 22 28
e 22 49
e 22 34
e 22 38
e 22 33
e 22 37
e 22 23
e 23 47
e 23 32
e 23 36
e 23 51
e 23 53
e 23 35
e 23 29
e 23 60
e 23 38
e 23 45
e 23 50
e 23 40
e 23 31
e 23 54
e 23 25
e 23 39
e 23 27
e 24 25
e 24 52
e 24 36
e 24 34
e 24 28
e 24 26
e 24 58
e 24 31
e 24 30
e 24 35
e 24 55
e 25 57
e 25 44
e 25 28
e 25 33
e 25 52
e 25 55
e 25 53
e 26 63
e 26 62
e 26 60
e 26 47
e 26 51
e 26 52
e 26 61
e 26 57
e 27 64
e 27 37
e 27 44
e 27 47
e 27 42
e 27 51
e 27 36
e 27 28
e 27 34
e 27 63
e 27 55
e 28 36
e 28 62
e 28 48
e 28 39
e 28 29
e 29 33
e 29 55
e 29 59
e 29 35
e 29 46
e 29 64
e 29 43
e 29 54
e 29 52
e 29 48
e 29 62
e 29 63
e 30 48
e 30 47
e 30 36
e 30 56
e 30 64
e 30 53
e 30 61
e 30 62
e 31 37
e 31 43
e 31 56
e 31 39
e 31 54
e 31 36
e 31 51
e 31 60
e 32 54
e 32 55
e 32 47
e 32 34
e 32 50
e 32 42
e 32 56
e 32 58
e 33 56
e 33 43
e 33 52
e 33 61
e 33 36
e 33 42
e 33 55
e 34 36
e 34 51
e 34 54
e 34 49
e 34 48
e 34 61
e 35 43
e 35 55
e 35 49
e 35 39
e 35 58
e 35 51
e 35 45
e 35 44
e 36 57
e 36 59
e 36 41
e 36 38
e 36 47
e 37 61
e 37 46
e 37 50
e 37 54
e 37 57
e 37 55
e 37 56
e 37 41
e 38 43
e 38 48
e 38 59
e 38 49
e 38 45
e 38 50
e 39 55
e 39 45
e 39 58
e 39 54
e 39 46
e 40 55
e 40 48
e 40 41
e 40 46
e 40 58
e 40 62
e 40 60
e 41 59
e 41 53
e 41 45
e 41 55
e 41 64
e 42 50
e 42 55
e 42 48
e 42 49
e 42 63
e 42 54
e 43 53
e 43 49
e 43 50
e 43 59
e 43 57
e 43 61
e 43 46
e 44 58
e 44 63
e 44 52
e 44 45
e 44 46
e 44 50
e 44 57
e 45 63
e 45 52
e 45 56
e 45 50
e 45 55
e 46 63
e 46 51
e 46 56
e 46 49
e 46 50
e 46 54
e 48 52
e 48 60
e 48 56
e 48 62
e 48 55
e 48 49
e 48 63
e 48 51
e 49 61
e 49 54
e 49 51
e 49 52
e 50 59
e 50 56
e 50 61
e 50 55
e 50 63
e 50 58
e 50 51
e 51 60
e 51 59
e 51 56
e 51 63
e 51 61
e 52 59
e 52 62
e 52 54
e 53 64
e 53 55
e 53 58
e 54 61
e 54 62
e 54 63
e 54 58
e 54 56
e 54 64
e 55 61
e 56 59
e 56 57
e 57 60
e 57 59
e 58 60
e 58 59
e 59 62
e 60 61
e 60 63
e 60 62
